set VV := 0 1 2 3 4 5 6 7 8 9 ;
set VS := 0 1 2 3 4 5 6 7 8 9 10 11 12 13 14 15 16 17 18 19 20 21 22 23 ;
param cv := 
0 11
1 10
2 25
3 21
4 25
5 15
6 14
7 18
8 12
9 20
;
param cs := 
0 39
1 34
2 39
3 28
4 34
5 40
6 39
7 40
8 33
9 39
10 31
11 32
12 28
13 33
14 24
15 26
16 36
17 26
18 26
19 22
20 24
21 20
22 35
23 32
;
param bv:	 0 1 2 3 4 5 6 7 8 9 := 
		0 0 0 0 0 24 0 0 12 0 0 
		1 0 0 11 13 0 0 22 0 0 0 
		2 0 0 0 0 0 21 0 0 0 0 
		3 0 0 0 0 0 0 0 0 0 0 
		4 0 0 0 0 0 0 15 0 0 20 
		5 0 0 0 0 0 0 0 0 20 0 
		6 0 0 0 0 0 0 0 0 0 0 
		7 0 0 0 0 0 0 0 0 0 0 
		8 0 0 0 0 0 0 0 0 0 12 
		9 0 0 0 0 0 0 0 0 0 0 
;
param bs:	 0 1 2 3 4 5 6 7 8 9 10 11 12 13 14 15 16 17 18 19 20 21 22 23 := 
		0 0 0 20 0 0 0 0 0 28 0 0 0 0 20 0 0 0 29 39 23 0 0 0 0 
		1 0 0 0 0 0 0 0 29 0 0 0 0 35 0 0 0 0 0 0 0 0 0 0 0 
		2 20 0 0 0 0 0 0 0 0 0 0 34 0 0 0 0 0 0 0 0 0 32 0 0 
		3 0 0 0 0 0 27 0 0 0 0 0 0 0 0 0 0 0 0 0 28 0 0 0 0 
		4 0 0 0 0 0 0 0 0 0 0 0 0 35 36 0 0 0 0 0 0 0 38 0 0 
		5 0 0 0 27 0 0 29 0 0 0 0 0 0 0 0 0 0 0 36 0 0 0 0 0 
		6 0 0 0 0 0 29 0 0 0 20 0 0 0 0 0 0 31 0 0 0 0 0 0 0 
		7 0 29 0 0 0 0 0 0 0 0 33 0 0 0 0 0 21 0 0 0 33 0 0 0 
		8 28 0 0 0 0 0 0 0 0 0 0 22 0 0 0 0 0 0 33 0 0 0 23 0 
		9 0 0 0 0 0 0 20 0 0 0 0 0 0 0 0 0 0 0 0 0 0 0 0 0 
		10 0 0 0 0 0 0 0 33 0 0 0 0 0 0 0 0 0 0 35 0 0 0 0 0 
		11 0 0 34 0 0 0 0 0 22 0 0 0 0 0 25 0 0 0 0 0 0 28 0 0 
		12 0 35 0 0 35 0 0 0 0 0 0 0 0 0 0 0 0 0 0 0 0 0 0 0 
		13 20 0 0 0 36 0 0 0 0 0 0 0 0 0 0 0 0 0 0 0 0 0 0 29 
		14 0 0 0 0 0 0 0 0 0 0 0 25 0 0 0 0 0 0 0 0 30 0 0 34 
		15 0 0 0 0 0 0 0 0 0 0 0 0 0 0 0 0 0 0 33 0 0 24 0 0 
		16 0 0 0 0 0 0 31 21 0 0 0 0 0 0 0 0 0 0 0 0 0 0 26 0 
		17 29 0 0 0 0 0 0 0 0 0 0 0 0 0 0 0 0 0 0 35 0 0 0 0 
		18 39 0 0 0 0 36 0 0 33 0 35 0 0 0 0 33 0 0 0 39 0 0 0 0 
		19 23 0 0 28 0 0 0 0 0 0 0 0 0 0 0 0 0 35 39 0 0 0 0 0 
		20 0 0 0 0 0 0 0 33 0 0 0 0 0 0 30 0 0 0 0 0 0 35 0 0 
		21 0 0 32 0 38 0 0 0 0 0 0 28 0 0 0 24 0 0 0 0 35 0 0 22 
		22 0 0 0 0 0 0 0 0 23 0 0 0 0 0 0 0 26 0 0 0 0 0 0 0 
		23 0 0 0 0 0 0 0 0 0 0 0 0 0 29 34 0 0 0 0 0 0 22 0 0 
;
